; benchmark generated from python API
(set-info :status unknown)
(declare-fun x_days () Int)
(assert
 (>= x_days (- 36525)))
(assert
 (<= x_days 36523))
(assert
 (>= x_days 7214))
(assert
 (<= x_days 7304))
(assert
 (let ((?x1119 (+ x_days 730179)))
(let ((?x838 (mod ?x1119 146097)))
(let ((?x824 (div ?x838 36524)))
(let ((?x941 (ite (<= 4 ?x824) 3 ?x824)))
(let ((?x993 (- ?x838 (* ?x941 36524))))
(let ((?x675 (mod ?x993 1461)))
(let ((?x983 (div ?x675 365)))
(let ((?x411 (ite (<= 4 ?x983) 3 ?x983)))
(let ((?x1074 (+ (+ (* (div ?x1119 146097) 400) (* ?x941 100)) (* (div ?x993 1461) 4))))
(let ((?x826 (+ (+ ?x1074 ?x411) 1)))
(let (($x936 (or (and (= (mod ?x826 4) 0) (and (distinct (mod ?x826 100) 0) true)) (= (mod ?x826 400) 0))))
(let ((?x1121 (- ?x675 (* ?x411 365))))
(let ((?x477 (ite $x936 31 31)))
(let (($x665 (>= ?x1121 ?x477)))
(let ((?x960 (ite $x665 (+ (- ?x1121 ?x477) 1) (+ (- ?x1121 (ite $x936 0 0)) 1))))
(let ((?x934 (ite $x936 60 59)))
(let (($x1073 (>= ?x1121 ?x934)))
(let ((?x1116 (ite $x936 91 90)))
(let (($x624 (>= ?x1121 ?x1116)))
(let ((?x957 (ite $x624 (+ (- ?x1121 ?x1116) 1) (ite $x1073 (+ (- ?x1121 ?x934) 1) ?x960))))
(let ((?x690 (ite $x936 121 120)))
(let (($x712 (>= ?x1121 ?x690)))
(let ((?x682 (ite $x936 152 151)))
(let (($x1195 (>= ?x1121 ?x682)))
(let ((?x1094 (ite $x1195 (+ (- ?x1121 ?x682) 1) (ite $x712 (+ (- ?x1121 ?x690) 1) ?x957))))
(let ((?x540 (ite $x936 182 181)))
(let (($x644 (>= ?x1121 ?x540)))
(let ((?x719 (ite $x936 213 212)))
(let (($x705 (>= ?x1121 ?x719)))
(let ((?x711 (ite $x705 (+ (- ?x1121 ?x719) 1) (ite $x644 (+ (- ?x1121 ?x540) 1) ?x1094))))
(let ((?x1150 (ite $x936 244 243)))
(let (($x473 (>= ?x1121 ?x1150)))
(let ((?x468 (ite $x936 274 273)))
(let (($x557 (>= ?x1121 ?x468)))
(let ((?x467 (ite $x557 (+ (- ?x1121 ?x468) 1) (ite $x473 (+ (- ?x1121 ?x1150) 1) ?x711))))
(let ((?x1120 (ite $x936 305 304)))
(let (($x945 (>= ?x1121 ?x1120)))
(let ((?x1123 (ite $x936 335 334)))
(let (($x700 (>= ?x1121 ?x1123)))
(let ((?x571 (ite $x700 (+ (- ?x1121 ?x1123) 1) (ite $x945 (+ (- ?x1121 ?x1120) 1) ?x467))))
(let ((?x1189 (ite $x712 5 (ite $x624 4 (ite $x1073 3 (ite $x665 2 1))))))
(let ((?x757 (ite $x473 9 (ite $x705 8 (ite $x644 7 (ite $x1195 6 ?x1189))))))
(let ((?x1168 (+ (ite $x700 12 (ite $x945 11 (ite $x557 10 ?x757))) (+ (* 1 12) 0))))
(let ((?x1025 (- ?x1168 1)))
(let ((?x512 (+ (mod ?x1025 12) 1)))
(let ((?x1171 (ite (or (= ?x512 4) (= ?x512 6) (= ?x512 9) (= ?x512 11)) 30 31)))
(let (($x1097 (and (= (mod (+ ?x826 (+ 0 (div ?x1025 12))) 4) 0) (and (distinct (mod (+ ?x826 (+ 0 (div ?x1025 12))) 100) 0) true))))
(let (($x785 (or $x1097 (= (mod (+ ?x826 (+ 0 (div ?x1025 12))) 400) 0))))
(let ((?x985 (ite (= ?x512 2) (ite $x785 29 28) ?x1171)))
(let ((?x828 (ite (> 1 ?x571) 1 (ite (> ?x571 ?x985) ?x985 ?x571))))
(let ((?x841 (ite (> 1 ?x828) 1 (ite (> ?x828 ?x985) ?x985 ?x828))))
(let ((?x1024 (ite (= 2 ?x512) (ite $x785 31 31) (ite (= 1 ?x512) (ite $x785 0 0) 0))))
(let ((?x561 (ite (= 4 ?x512) (ite $x785 91 90) (ite (= 3 ?x512) (ite $x785 60 59) ?x1024))))
(let ((?x689 (ite (= 6 ?x512) (ite $x785 152 151) (ite (= 5 ?x512) (ite $x785 121 120) ?x561))))
(let ((?x1049 (ite (= 8 ?x512) (ite $x785 213 212) (ite (= 7 ?x512) (ite $x785 182 181) ?x689))))
(let ((?x1061 (ite (= 10 ?x512) (ite $x785 274 273) (ite (= 9 ?x512) (ite $x785 244 243) ?x1049))))
(let ((?x917 (ite (= 12 ?x512) (ite $x785 335 334) (ite (= 11 ?x512) (ite $x785 305 304) ?x1061))))
(let ((?x761 (+ (* 365 (- (+ ?x826 (+ 0 (div ?x1025 12))) 1)) (div (- (+ ?x826 (+ 0 (div ?x1025 12))) 1) 4))))
(let ((?x693 (+ (- ?x761 (div (- (+ ?x826 (+ 0 (div ?x1025 12))) 1) 100)) (div (- (+ ?x826 (+ 0 (div ?x1025 12))) 1) 400))))
(let ((?x946 (+ (+ (- (+ (+ ?x693 ?x917) (- ?x841 1)) 730179) 0) 730179)))
(let ((?x798 (mod ?x946 146097)))
(let ((?x816 (div ?x798 36524)))
(let ((?x664 (ite (<= 4 ?x816) 3 ?x816)))
(let ((?x1107 (- ?x798 (* ?x664 36524))))
(let ((?x1136 (mod ?x1107 1461)))
(let ((?x703 (div ?x1136 365)))
(let ((?x776 (ite (<= 4 ?x703) 3 ?x703)))
(let ((?x929 (+ (+ (* (div ?x946 146097) 400) (* ?x664 100)) (* (div ?x1107 1461) 4))))
(let ((?x513 (+ (+ ?x929 ?x776) 1)))
(let (($x1108 (or (and (= (mod ?x513 4) 0) (and (distinct (mod ?x513 100) 0) true)) (= (mod ?x513 400) 0))))
(let ((?x1176 (- ?x1136 (* ?x776 365))))
(let ((?x909 (ite $x1108 31 31)))
(let (($x1041 (>= ?x1176 ?x909)))
(let ((?x599 (ite $x1041 (+ (- ?x1176 ?x909) 1) (+ (- ?x1176 (ite $x1108 0 0)) 1))))
(let ((?x627 (ite $x1108 60 59)))
(let (($x1201 (>= ?x1176 ?x627)))
(let ((?x1193 (ite $x1108 91 90)))
(let (($x792 (>= ?x1176 ?x1193)))
(let ((?x899 (ite $x792 (+ (- ?x1176 ?x1193) 1) (ite $x1201 (+ (- ?x1176 ?x627) 1) ?x599))))
(let ((?x412 (ite $x1108 121 120)))
(let (($x576 (>= ?x1176 ?x412)))
(let ((?x818 (ite $x1108 152 151)))
(let (($x877 (>= ?x1176 ?x818)))
(let ((?x968 (ite $x877 (+ (- ?x1176 ?x818) 1) (ite $x576 (+ (- ?x1176 ?x412) 1) ?x899))))
(let ((?x1166 (ite $x1108 182 181)))
(let (($x948 (>= ?x1176 ?x1166)))
(let ((?x1033 (ite $x1108 213 212)))
(let (($x595 (>= ?x1176 ?x1033)))
(let ((?x1164 (ite $x595 (+ (- ?x1176 ?x1033) 1) (ite $x948 (+ (- ?x1176 ?x1166) 1) ?x968))))
(let ((?x545 (ite $x1108 244 243)))
(let (($x996 (>= ?x1176 ?x545)))
(let ((?x729 (ite $x1108 274 273)))
(let (($x840 (>= ?x1176 ?x729)))
(let ((?x634 (ite $x840 (+ (- ?x1176 ?x729) 1) (ite $x996 (+ (- ?x1176 ?x545) 1) ?x1164))))
(let ((?x435 (ite $x1108 305 304)))
(let (($x742 (>= ?x1176 ?x435)))
(let ((?x1191 (ite $x1108 335 334)))
(let (($x804 (>= ?x1176 ?x1191)))
(let ((?x902 (ite $x804 (+ (- ?x1176 ?x1191) 1) (ite $x742 (+ (- ?x1176 ?x435) 1) ?x634))))
(let (($x916 (= 0 0)))
(let (($x969 (= (mod (ite $x916 (+ ?x826 (+ 0 (div ?x1025 12))) ?x513) 400) 0)))
(let (($x688 (and (distinct (mod (ite $x916 (+ ?x826 (+ 0 (div ?x1025 12))) ?x513) 100) 0) true)))
(let (($x1083 (= (mod (ite $x916 (+ ?x826 (+ 0 (div ?x1025 12))) ?x513) 4) 0)))
(let (($x1010 (or (and $x1083 $x688) $x969)))
(let ((?x476 (ite $x576 5 (ite $x792 4 (ite $x1201 3 (ite $x1041 2 1))))))
(let ((?x954 (ite $x996 9 (ite $x595 8 (ite $x948 7 (ite $x877 6 ?x476))))))
(let ((?x864 (ite $x916 ?x512 (ite $x804 12 (ite $x742 11 (ite $x840 10 ?x954))))))
(let ((?x889 (ite (= 2 ?x864) (ite $x1010 31 31) (ite (= 1 ?x864) (ite $x1010 0 0) 0))))
(let ((?x830 (ite (= 4 ?x864) (ite $x1010 91 90) (ite (= 3 ?x864) (ite $x1010 60 59) ?x889))))
(let ((?x872 (ite (= 6 ?x864) (ite $x1010 152 151) (ite (= 5 ?x864) (ite $x1010 121 120) ?x830))))
(let ((?x1152 (ite (= 8 ?x864) (ite $x1010 213 212) (ite (= 7 ?x864) (ite $x1010 182 181) ?x872))))
(let ((?x845 (ite (= 10 ?x864) (ite $x1010 274 273) (ite (= 9 ?x864) (ite $x1010 244 243) ?x1152))))
(let ((?x608 (ite (= 12 ?x864) (ite $x1010 335 334) (ite (= 11 ?x864) (ite $x1010 305 304) ?x845))))
(let ((?x632 (+ ?x826 (+ 0 (div ?x1025 12)))))
(let ((?x867 (ite $x916 ?x632 ?x513)))
(let ((?x783 (- ?x867 1)))
(let ((?x720 (+ (- (+ (* 365 ?x783) (div ?x783 4)) (div ?x783 100)) (div ?x783 400))))
(let (($x992 (= (- (+ (+ ?x720 ?x608) (- (ite $x916 ?x841 ?x902) 1)) 730179) (+ x_days 366))))
(not $x992))))))))))))))))))))))))))))))))))))))))))))))))))))))))))))))))))))))))))))))))))))))))))))))))))))))))))))))))))))))))
(check-sat)
